1 48 26 62 82 8 13 38 85 90 75 4 95 49 67 34 12 14 45 9 86 78 73 65 70 6 99 100 10 60 30 7 47 15 58 55 92 98 40 80 16 81 59 37 91 77 17 32 42 25 63 43 41 5 56 20 54 52 61 46 35 27 87 84 3 28 50 79 74 68 44 69 36 93 89 72 83 88 18 22 94 2 64 39 31 21 11 23 66 29 76 96 53 97 33 51 24 57 71 19
